nNurses = 165;
nHours = 28;
minHours = 9;
maxHours = 11;
maxConsec = 9;
maxPresence = 10;
demand = [16, 15, 12, 12, 15, 10, 13, 11, 11, 12, 13, 14, 19, 17, 22, 27, 29, 34, 31, 31, 26, 30, 35, 40, 39, 38, 33, 37];
